edges = [{1, 2}, {1, 2, 3, 9}, {10, 2, 3, 4}, {11, 3, 4, 5}, {4, 5, 6}, {12, 5, 6, 7}, {8, 13, 6, 7}, {8, 7}, {9, 2, 10, 15}, {3, 9, 10, 11, 16}, {17, 10, 11, 4}, {18, 12, 13, 6}, {19, 12, 13, 7}, {14, 15}, {9, 14, 15, 16, 20}, {10, 15, 16, 17, 21}, {16, 17, 11, 22}, {24, 18, 19, 12}, {25, 18, 19, 13}, {27, 20, 21, 15}, {16, 20, 21, 22, 28}, {17, 21, 22, 23, 29}, {24, 30, 22, 23}, {18, 23, 24, 25, 31}, {32, 19, 24, 25, 26}, {25, 26, 33}, {34, 27, 20, 28}, {29, 27, 28, 21}, {28, 29, 22, 30}, {35, 23, 29, 30, 31}, {32, 36, 24, 30, 31}, {32, 33, 37, 25, 31}, {32, 33, 26, 38}, {34, 27}, {42, 35, 36, 30}, {35, 36, 37, 43, 31}, {32, 36, 37, 38, 44}, {33, 45, 37, 38}, {46, 39}, {40, 41, 48}, {40, 41, 42, 49}, {41, 42, 35, 43}, {36, 42, 43, 44, 50}, {37, 43, 44, 45, 51}, {44, 45, 38, 52}, {47, 46, 39}, {48, 46, 47}, {48, 49, 40, 47}, {48, 49, 41}, {51, 50, 43}, {50, 51, 44, 52}, {51, 52, 45}];
input = [|36, 45|32, 13|43, 31|35, 22|10, 24|42, 33|14, 3|34, 34|45, 26|9, 17|37, 6|19, 18|27, 28|31, 36|28, 16|49, 42|7, 10|51, 52|3, 20|6, 25|46, 39|2, 1|11, 35|44, 37|26, 38|18, 19|41, 47|38, 50|50, 51|48, 44|];
V = 52;
A = 30;
E = 76;
maxTime=10